nbNodes = 12;
nbVehi = 3;
nbServi = 4;

e = 
 [ 0,  388,  436,  104,  220,   70,  328,  398,  446,  177,  359,    0,];

l = 
 [480, 480, 520, 166, 320, 151, 407, 504, 519, 244, 459, 480,];
a = 
 [|  1,  1,  1,  1,
 |  0,  1,  0,  1,
 |  1,  1,  1,  0,
 |];

p = array3d(1..nbNodes,1..nbVehi,1..nbServi,
[  0,  0,  0,  0,	  0,  0,  0,  0,	  0,  0,  0,  0,	
 30, 35, 26, 28,	 44, 27, 29, 18,	 32, 46, 45, 16,	
 21, 10, 36, 41,	 43, 41, 27, 15,	 19, 29, 43, 36,	
 43, 45, 40, 45,	 23, 18, 37, 44,	 33, 39, 44, 29,	
 12, 38, 33, 23,	 15, 24, 41, 14,	 48, 31, 43, 49,	
 22, 27, 44, 26,	 14, 17, 17, 11,	 30, 11, 24, 44,	
 34, 30, 41, 20,	 22, 16, 39, 14,	 28, 27, 45, 27,	
 12, 28, 24, 22,	 33, 41, 18, 38,	 21, 24, 33, 42,	
 30, 39, 33, 21,	 28, 34, 39, 14,	 36, 22, 44, 29,	
 29, 12, 23, 42,	 12, 46, 36, 11,	 32, 10, 39, 32,	
 20, 33, 36, 31,	 25, 20, 16, 41,	 43, 48, 39, 16,	
  0,  0,  0,  0,	  0,  0,  0,  0,	  0,  0,  0,  0,	
]);

rs = 
[|  true,  true,  true,  true,	 	
|  false,  false,  true,  false,	  	
|  true,  false,  false,  false,	  	
|  false,  false,  false,  true,	  	
|  false,  false,  false,  true,	  	
|  true,  false,  false,  false,	  	
|  true,  false,  false,  false,	  	
|  false,  false,  false,  true,	  	
|  false,  true,  false,  false,	  	
|  false,  true,  false,  false,	  	
|  false,  false,  true,  false,	  	
|  true,  true,  true,  true,	  	
|];

d=[|0, 24, 0, 0, 10, 3, 13, 25, 3, 11, 2, 0, 
|24, 0, 24, 24, 34, 21, 36, 33, 27, 31, 23, 24, 
|0, 24, 0, 0, 10, 3, 13, 25, 3, 11, 2, 0, 
|0, 24, 0, 0, 10, 3, 13, 25, 3, 11, 2, 0, 
|10, 34, 10, 10, 0, 13, 7, 26, 7, 12, 11, 10, 
|3, 21, 3, 3, 13, 0, 15, 26, 6, 12, 4, 3, 
|13, 36, 13, 13, 7, 15, 0, 34, 10, 6, 15, 13, 
|25, 33, 25, 25, 26, 26, 34, 0, 26, 36, 23, 25, 
|3, 27, 3, 3, 7, 6, 10, 26, 0, 9, 5, 3, 
|11, 31, 11, 11, 12, 12, 6, 36, 9, 0, 13, 11, 
|2, 23, 2, 2, 11, 4, 15, 23, 5, 13, 0, 2, 
|0, 24, 0, 0, 10, 3, 13, 25, 3, 11, 2, 0, 
|];
